126
Lattice="10.0 0.0 0.0 0.0 10.0 0.0 0.0 0.0 10.0" Properties=species:S:1:pos:R:3:momenta:R:3:forces:R:3 energy=0.0 pbc="F F F"
O        7.44823700       0.72720850      12.73012550       0.32395169       0.00124255      -0.34934980       0.00000000       0.00000000       0.00000000
H        8.28304400       0.32609150      12.90282850       0.27173087      -0.19749447       0.00928881       0.00000000       0.00000000       0.00000000
H        7.29817600       1.23993950      13.47895350       0.14120677      -0.08173057       0.14399514       0.00000000       0.00000000       0.00000000
O       -3.99151800       6.48115550       9.61769850       0.10756710      -0.22643273       0.12528172       0.00000000       0.00000000       0.00000000
H       -4.89404600       6.47669750      10.03378150      -0.13353388       0.05299565      -0.08820578       0.00000000       0.00000000       0.00000000
H       -3.82424800       5.50159550       9.51214650       0.03713524      -0.32853961      -0.07647310       0.00000000       0.00000000       0.00000000
O       -1.44711100       3.39183050       7.03505450       0.31822258       0.10660386       0.50708147       0.00000000       0.00000000       0.00000000
H       -0.95876300       4.00767850       6.47365250       0.07870699      -0.42238044      -0.16760032       0.00000000       0.00000000       0.00000000
H       -0.79603400       3.20832150       7.77334150       0.00004901      -0.00071204       0.00297613       0.00000000       0.00000000       0.00000000
O       10.07771000       9.32475250       5.30369350      -0.60642494       0.56120327      -0.45477326       0.00000000       0.00000000       0.00000000
H        9.36980000       9.57098350       4.66232750       0.03576898       0.01738970      -0.08018591       0.00000000       0.00000000       0.00000000
H        9.65150300       9.00817150       6.12862150      -0.15824785      -0.03278579      -0.01675224       0.00000000       0.00000000       0.00000000
O       10.05375800       8.23884650      10.82513050       0.53473624       0.52121597      -0.92403675       0.00000000       0.00000000       0.00000000
H        9.61172100       7.42069250      11.27216350       0.19006217      -0.19064257       0.07986635       0.00000000       0.00000000       0.00000000
H       10.18795600       8.90506550      11.51502050      -0.28038577      -0.02050048      -0.00212325       0.00000000       0.00000000       0.00000000
O        5.58420100       6.45033150       0.78084850       0.48181456       0.07882436       0.78991517       0.00000000       0.00000000       0.00000000
H        5.47749300       5.92589350       1.61106650      -0.02037109      -0.20645621       0.39751566       0.00000000       0.00000000       0.00000000
H        4.82335800       7.11479250       0.92101350       0.03737133      -0.09757616      -0.16967052       0.00000000       0.00000000       0.00000000
O       -3.31937800       4.43162250      -1.81992750       0.32727052       0.26460500      -1.22513646       0.00000000       0.00000000       0.00000000
H       -2.54053200       4.64744950      -2.38049850      -0.19667983       0.20944773      -0.09476725       0.00000000       0.00000000       0.00000000
H       -3.14621800       3.63862650      -1.31690450      -0.04023181      -0.12784253       0.03887833       0.00000000       0.00000000       0.00000000
O        9.08620800      -2.10811950      10.75999950       0.66875114       0.87630219       0.65642533       0.00000000       0.00000000       0.00000000
H        9.80220500      -2.76669950      10.60932450      -0.01888168      -0.11110972       0.13438608       0.00000000       0.00000000       0.00000000
H        9.39594100      -1.54644150      11.45609650      -0.13619094      -0.03659695       0.12068911       0.00000000       0.00000000       0.00000000
O        8.35352100      -3.40344450      -4.24946450      -0.21712536      -0.49724650      -0.50328961       0.00000000       0.00000000       0.00000000
H        8.81554600      -3.82176250      -4.94917950       0.09425484       0.02411967      -0.07053692       0.00000000       0.00000000       0.00000000
H        8.97380800      -3.39405750      -3.52005750       0.22860911      -0.10761224       0.05414759       0.00000000       0.00000000       0.00000000
O        9.94824500       9.06952950      -2.61456550      -0.36968311       0.20601560       1.32427144       0.00000000       0.00000000       0.00000000
H        9.21167400       9.38413350      -2.01511950       0.21572639      -0.03973857      -0.06433642       0.00000000       0.00000000       0.00000000
H       10.55354100       8.64563850      -1.98041150       0.20948368       0.01540705       0.11946194       0.00000000       0.00000000       0.00000000
O       12.13475600       9.34519050       8.80164350       0.50834715      -0.47050373       0.92054363       0.00000000       0.00000000       0.00000000
H       11.75078000       8.46827050       8.56622750       0.03416014       0.19519482      -0.04005848       0.00000000       0.00000000       0.00000000
H       12.59465500       9.37086750       9.71910250       0.01176654       0.26596949      -0.00547581       0.00000000       0.00000000       0.00000000
O        7.62008600       8.15478550       1.79546250       1.28579924       0.15118404      -0.94773501       0.00000000       0.00000000       0.00000000
H        8.17990600       7.42469750       2.20172950       0.11917790       0.03322486       0.29798869       0.00000000       0.00000000       0.00000000
H        7.00128400       7.69676650       1.19238250       0.20479018      -0.00207696       0.15931711       0.00000000       0.00000000       0.00000000
O       11.62123500       7.24730850      -0.85861950      -0.38503531      -0.28748352      -0.91236164       0.00000000       0.00000000       0.00000000
H       11.20701300       6.46547050      -0.58012950      -0.09612100       0.09872994       0.00673494       0.00000000       0.00000000       0.00000000
H       12.58794300       7.10944950      -0.83681950       0.04187428       0.20433370       0.17185422       0.00000000       0.00000000       0.00000000
O       14.14777200       1.80768850      12.55374950       0.24952556       0.23859974       1.12409804       0.00000000       0.00000000       0.00000000
H       14.89404600       1.90200550      11.97677550       0.10936413       0.04867090      -0.29422002       0.00000000       0.00000000       0.00000000
H       13.91288200       2.75064550      12.70363050       0.25625302      -0.01659676       0.00425467       0.00000000       0.00000000       0.00000000
O       -2.63243700       8.00789750       7.64930350      -0.62287743       0.84912891       0.22864163       0.00000000       0.00000000       0.00000000
H       -3.17764000       7.53028950       8.33717550      -0.08734496      -0.06351728       0.15385330       0.00000000       0.00000000       0.00000000
H       -3.20887100       8.72590650       7.40600850       0.12734549       0.20142133       0.43753451       0.00000000       0.00000000       0.00000000
O       -0.14206700      -2.14986850       2.63035750      -0.07680903       0.27700137       0.79788578       0.00000000       0.00000000       0.00000000
H       -0.80719000      -2.83856350       2.84835950      -0.01789126      -0.23386289       0.20035833       0.00000000       0.00000000       0.00000000
H       -0.50874800      -1.31744550       2.96068050       0.35546226       0.14183658       0.14796782       0.00000000       0.00000000       0.00000000
O        1.67311300      -3.26819450      12.73073350       0.06521850      -0.52566779      -0.00149907       0.00000000       0.00000000       0.00000000
H        1.27913900      -2.35356750      12.62648050       0.24004612       0.12982139       0.13080031       0.00000000       0.00000000       0.00000000
H        1.92982700      -3.39764850      13.67815550       0.30451051       0.16343391       0.05119532       0.00000000       0.00000000       0.00000000
O        8.06634900      -4.56607650      11.72372150       0.30572448       0.04634911      -0.65659581       0.00000000       0.00000000       0.00000000
H        7.21126600      -4.67489250      12.27036150       0.05964676      -0.24358437       0.26390448       0.00000000       0.00000000       0.00000000
H        8.11153000      -3.56303550      11.66037450       0.04684657       0.06078113      -0.01027702       0.00000000       0.00000000       0.00000000
O        0.11638600       5.24067850       4.72047450       0.81633760      -0.38780524      -0.28064788       0.00000000       0.00000000       0.00000000
H       -0.26364100       4.85991050       3.87585050      -0.03303697       0.29067264       0.04710262       0.00000000       0.00000000       0.00000000
H       -0.45953700       5.99304850       4.94945850       0.12637048      -0.07636188      -0.13014648       0.00000000       0.00000000       0.00000000
O        3.33018300      -0.82701150       1.77818650      -0.08193880      -0.12135113      -0.35882713       0.00000000       0.00000000       0.00000000
H        2.55681000      -0.22653250       1.88965550      -0.02706869       0.15881444      -0.12408945       0.00000000       0.00000000       0.00000000
H        2.97416300      -1.63057050       2.09487950      -0.05427996      -0.15728591      -0.16825450       0.00000000       0.00000000       0.00000000
O        7.07098200       1.13314350      -1.52516850       0.65102982      -0.52039000      -0.95182796       0.00000000       0.00000000       0.00000000
H        6.64330100       1.74450550      -0.91988150      -0.05692180      -0.16178622      -0.08509318       0.00000000       0.00000000       0.00000000
H        6.43883700       0.36440250      -1.47316550       0.07739240      -0.08841504      -0.22745045       0.00000000       0.00000000       0.00000000
O        5.15335300       4.07353950      11.86905950      -0.35039718       0.50110997      -0.05424136       0.00000000       0.00000000       0.00000000
H        5.08357800       4.83789550      12.51088050      -0.13598569      -0.00453564      -0.05893355       0.00000000       0.00000000       0.00000000
H        5.31992200       4.34586050      11.00123650       0.22403281      -0.26574009      -0.12235200       0.00000000       0.00000000       0.00000000
O        5.03594100      10.69333450       7.07639650       0.75245034       0.74326489      -0.41067367       0.00000000       0.00000000       0.00000000
H        4.17868300      10.78212050       6.63259050      -0.27163973      -0.12463439      -0.10713576       0.00000000       0.00000000       0.00000000
H        5.53520600      11.49507750       6.98847250      -0.12400963       0.15718715       0.09568399       0.00000000       0.00000000       0.00000000
O        2.61230900       6.40259150       5.75326750      -0.66711067       0.05908304       1.07505618       0.00000000       0.00000000       0.00000000
H        2.31280600       6.81160050       6.59433350      -0.05789009      -0.26730179      -0.09189164       0.00000000       0.00000000       0.00000000
H        1.80747000       6.01769950       5.36821050       0.08954894      -0.11289282      -0.13244178       0.00000000       0.00000000       0.00000000
O       -1.43866000      12.69851850       7.26567750      -0.79904877       1.00114404      -0.25150699       0.00000000       0.00000000       0.00000000
H       -1.20246700      11.90557750       6.78399550       0.37781354      -0.01874906      -0.36837683       0.00000000       0.00000000       0.00000000
H       -2.46008300      12.66893550       7.32862550      -0.28772898       0.08862863       0.00872979       0.00000000       0.00000000       0.00000000
O        4.43556000       8.98899650       1.28551450      -0.41734618       0.32384869      -0.23773753       0.00000000       0.00000000       0.00000000
H        3.63489300       9.17080550       0.81741050      -0.20290629      -0.24061712      -0.32971542       0.00000000       0.00000000       0.00000000
H        4.82332100       9.84010850       1.29578750       0.24835093       0.16854767      -0.24670219       0.00000000       0.00000000       0.00000000
O       10.18762800      -2.65759450      -2.52530950       1.89859002       0.07693065      -0.44597300       0.00000000       0.00000000       0.00000000
H       10.99081100      -3.22245650      -2.74786850       0.01212310       0.28568593       0.02291781       0.00000000       0.00000000       0.00000000
H        9.97878300      -2.75527850      -1.54859950       0.10825164      -0.18861360      -0.11409202       0.00000000       0.00000000       0.00000000
O       -2.64045000      -2.62412750       7.63967250       1.80068464       0.16996871      -0.75985748       0.00000000       0.00000000       0.00000000
H       -2.14750400      -3.14252050       7.03125550      -0.00041833      -0.02002413       0.38955756       0.00000000       0.00000000       0.00000000
H       -3.54015300      -2.46654350       7.27311050      -0.02395667       0.08921373       0.27425218       0.00000000       0.00000000       0.00000000
O        8.69557800       2.24336650       1.13425850      -0.57667906       0.04356958       1.41871700       0.00000000       0.00000000       0.00000000
H        8.61315000       2.68878650       1.99591550      -0.31386144      -0.19991220      -0.28137397       0.00000000       0.00000000       0.00000000
H        8.57833800       2.95524150       0.47739050       0.13665494      -0.07494579       0.14778502       0.00000000       0.00000000       0.00000000
O        9.43909200      13.82695050       5.90326250       0.53269401      -0.51963979      -0.26995658       0.00000000       0.00000000       0.00000000
H        9.79197500      14.67489250       6.20024650       0.26702205      -0.10915327      -0.07747652       0.00000000       0.00000000       0.00000000
H       10.13545900      13.23143650       6.09452150      -0.03943014      -0.07174352       0.36934435       0.00000000       0.00000000       0.00000000
O        6.38579400      -1.49450050       6.71007450       0.24256952      -0.26565998      -0.68804731       0.00000000       0.00000000       0.00000000
H        6.87339100      -1.11776950       6.03421150       0.00695844       0.22357455      -0.08571918       0.00000000       0.00000000       0.00000000
H        6.97435200      -1.35791350       7.46499450      -0.02085637      -0.34349976       0.04581895       0.00000000       0.00000000       0.00000000
O        3.62666800      -1.28331250       9.78920050       0.45397634      -0.51442738       0.11092144       0.00000000       0.00000000       0.00000000
H        3.87349500      -1.73636350      10.59654750       0.15175255      -0.37431031      -0.28127365       0.00000000       0.00000000       0.00000000
H        3.70662300      -0.33143750       9.88921450       0.07511450       0.17424877      -0.32420459       0.00000000       0.00000000       0.00000000
O       -2.44734600       1.95758750      10.72133550       0.62843504      -0.06275198       0.64051315       0.00000000       0.00000000       0.00000000
H       -2.73612900       2.69584550      10.17964250       0.27874044      -0.05327134      -0.27193649       0.00000000       0.00000000       0.00000000
H       -1.64994300       2.33185850      11.18576750       0.14196752      -0.05039091       0.12055153       0.00000000       0.00000000       0.00000000
O        2.19185300       9.65054050      -0.35655950      -0.10230725      -0.27718963      -0.77961378       0.00000000       0.00000000       0.00000000
H        1.23722000       9.57835250      -0.33472050      -0.21460480      -0.00485005      -0.24044470       0.00000000       0.00000000       0.00000000
H        2.53166600       9.19657550      -1.13132750       0.09752039      -0.15358197       0.26444390       0.00000000       0.00000000       0.00000000
O        4.04946900       9.28728550      -2.72172350       1.12404755      -0.10261416       0.59730279       0.00000000       0.00000000       0.00000000
H        4.77271700       8.67011250      -2.78357450       0.16345830       0.12936424      -0.09420756       0.00000000       0.00000000       0.00000000
H        3.83653200       9.61174850      -3.61419850       0.30070001      -0.22190509       0.01913813       0.00000000       0.00000000       0.00000000
O        6.06660700      -1.67995150      13.10039450       0.80894223      -0.36649471      -0.26047682       0.00000000       0.00000000       0.00000000
H        6.85699900      -2.10130450      13.51022950      -0.05035397       0.21313668       0.19050322       0.00000000       0.00000000       0.00000000
H        6.49467900      -0.85272750      12.76382050       0.28797241       0.10110437       0.03302871       0.00000000       0.00000000       0.00000000
O       12.30978000       7.36621350       4.86649550       0.65016501      -0.06394132      -0.02279098       0.00000000       0.00000000       0.00000000
H       11.53392500       8.01675950       4.85191050      -0.11026249       0.15885766      -0.28501395       0.00000000       0.00000000       0.00000000
H       12.57596300       7.19780850       4.00491350       0.08698095       0.07615875       0.01586242       0.00000000       0.00000000       0.00000000
O        0.75863200       2.35480750      -2.73935350       0.77505654      -0.28400793      -0.33003377       0.00000000       0.00000000       0.00000000
H       -0.03859000       1.83814650      -2.52300150       0.14586409       0.06643048      -0.17057976       0.00000000       0.00000000       0.00000000
H        0.51167300       3.24470750      -3.10343750       0.24989033      -0.14201422       0.26391543       0.00000000       0.00000000       0.00000000
O        1.11248800      -2.06485250       8.82734250      -0.39883443       0.69469565      -0.88749246       0.00000000       0.00000000       0.00000000
H        1.09419800      -3.02094150       8.99738250       0.05013280       0.06932416      -0.31497624       0.00000000       0.00000000       0.00000000
H        2.00623600      -1.80136450       9.13835150       0.18746281       0.19787635       0.01107113       0.00000000       0.00000000       0.00000000
O        1.26341900      10.99630650      14.04344650      -0.74347826       0.73736328       0.39250404       0.00000000       0.00000000       0.00000000
H        1.02991600      11.10330750      14.94917950       0.03119730       0.08107401      -0.06999282       0.00000000       0.00000000       0.00000000
H        0.44314700      11.41331750      13.62368550      -0.22635471       0.10013897       0.05229862       0.00000000       0.00000000       0.00000000
O       -4.06301700      -1.03899350       3.88292350      -0.70728714       0.06118565      -0.39874459       0.00000000       0.00000000       0.00000000
H       -3.23924900      -0.52293550       4.16201350      -0.16015404      -0.00432611       0.10509455       0.00000000       0.00000000       0.00000000
H       -4.66878800      -0.32733450       3.57486250      -0.26857123      -0.12725658      -0.18266447       0.00000000       0.00000000       0.00000000
O        2.01788900       3.70263850       1.84366250       1.58256534      -0.39980209       0.34981782       0.00000000       0.00000000       0.00000000
H        1.88741700       2.84137550       2.19886950       0.15240464       0.03572945       0.42432246       0.00000000       0.00000000       0.00000000
H        2.27061900       3.48282850       0.97372950      -0.04565922       0.27215877      -0.00849390       0.00000000       0.00000000       0.00000000
126
Lattice="10.0 0.0 0.0 0.0 10.0 0.0 0.0 0.0 10.0" Properties=species:S:1:pos:R:3:momenta:R:3:forces:R:3 energy=0.0 pbc="F F F"
O        7.44823700       0.72720850      12.73012550      -1.35627399      -0.21451546       1.21489299       0.00000000       0.00000000       0.00000000
H        8.28304400       0.32609150      12.90282850      -0.00681842      -0.31328457       0.05911311       0.00000000       0.00000000       0.00000000
H        7.29817600       1.23993950      13.47895350      -0.12529962       0.05681406       0.07908323       0.00000000       0.00000000       0.00000000
O       -3.99151800       6.48115550       9.61769850       1.78695194       0.18011966      -1.03217802       0.00000000       0.00000000       0.00000000
H       -4.89404600       6.47669750      10.03378150      -0.08122250      -0.15835004       0.12854810       0.00000000       0.00000000       0.00000000
H       -3.82424800       5.50159550       9.51214650      -0.07550120       0.06603442       0.08496094       0.00000000       0.00000000       0.00000000
O       -1.44711100       3.39183050       7.03505450      -0.15323808       0.30823004       0.18098051       0.00000000       0.00000000       0.00000000
H       -0.95876300       4.00767850       6.47365250      -0.00680274       0.11522018       0.21008719       0.00000000       0.00000000       0.00000000
H       -0.79603400       3.20832150       7.77334150       0.26710421       0.14365333      -0.31732997       0.00000000       0.00000000       0.00000000
O       10.07771000       9.32475250       5.30369350      -0.70460100       1.77947936      -0.31135660       0.00000000       0.00000000       0.00000000
H        9.36980000       9.57098350       4.66232750       0.11495979       0.22557471      -0.08212804       0.00000000       0.00000000       0.00000000
H        9.65150300       9.00817150       6.12862150      -0.15731333      -0.13954101       0.34966269       0.00000000       0.00000000       0.00000000
O       10.05375800       8.23884650      10.82513050      -0.85086182      -0.66550368      -0.11580597       0.00000000       0.00000000       0.00000000
H        9.61172100       7.42069250      11.27216350       0.21328826      -0.13953645      -0.22870006       0.00000000       0.00000000       0.00000000
H       10.18795600       8.90506550      11.51502050      -0.14182412       0.16857971      -0.14281569       0.00000000       0.00000000       0.00000000
O        5.58420100       6.45033150       0.78084850       1.67063037      -0.12278339       0.47846573       0.00000000       0.00000000       0.00000000
H        5.47749300       5.92589350       1.61106650      -0.00833502      -0.08910865       0.12528546       0.00000000       0.00000000       0.00000000
H        4.82335800       7.11479250       0.92101350      -0.05806100      -0.18694337      -0.13148264       0.00000000       0.00000000       0.00000000
O       -3.31937800       4.43162250      -1.81992750       0.24860568      -0.49447120      -0.19158367       0.00000000       0.00000000       0.00000000
H       -2.54053200       4.64744950      -2.38049850       0.09144204       0.00977684       0.33131085       0.00000000       0.00000000       0.00000000
H       -3.14621800       3.63862650      -1.31690450       0.07028287      -0.13560798       0.35945755       0.00000000       0.00000000       0.00000000
O        9.08620800      -2.10811950      10.75999950      -1.22234580      -0.47672699      -0.53954597       0.00000000       0.00000000       0.00000000
H        9.80220500      -2.76669950      10.60932450      -0.19942999       0.09220138      -0.35161173       0.00000000       0.00000000       0.00000000
H        9.39594100      -1.54644150      11.45609650       0.11910000       0.32350193      -0.13072298       0.00000000       0.00000000       0.00000000
O        8.35352100      -3.40344450      -4.24946450       0.19835624      -0.83713107       1.13292368       0.00000000       0.00000000       0.00000000
H        8.81554600      -3.82176250      -4.94917950      -0.20946099      -0.03005700      -0.13606675       0.00000000       0.00000000       0.00000000
H        8.97380800      -3.39405750      -3.52005750      -0.14566882       0.06527990      -0.01597160       0.00000000       0.00000000       0.00000000
O        9.94824500       9.06952950      -2.61456550       0.05851778      -0.44896521       0.44788831       0.00000000       0.00000000       0.00000000
H        9.21167400       9.38413350      -2.01511950      -0.06068681       0.02054983       0.05511054       0.00000000       0.00000000       0.00000000
H       10.55354100       8.64563850      -1.98041150       0.02207598      -0.16058194      -0.06533582       0.00000000       0.00000000       0.00000000
O       12.13475600       9.34519050       8.80164350       0.67195532      -1.33270252      -1.65071552       0.00000000       0.00000000       0.00000000
H       11.75078000       8.46827050       8.56622750      -0.29765294      -0.05129717      -0.28948376       0.00000000       0.00000000       0.00000000
H       12.59465500       9.37086750       9.71910250      -0.01984586      -0.10226640       0.10778178       0.00000000       0.00000000       0.00000000
O        7.62008600       8.15478550       1.79546250      -0.33764802       0.22815002       0.83865522       0.00000000       0.00000000       0.00000000
H        8.17990600       7.42469750       2.20172950      -0.09038509       0.22480412      -0.24626779       0.00000000       0.00000000       0.00000000
H        7.00128400       7.69676650       1.19238250      -0.45600563       0.09789814      -0.02577733       0.00000000       0.00000000       0.00000000
O       11.62123500       7.24730850      -0.85861950      -0.71921595      -0.68483467      -0.08390998       0.00000000       0.00000000       0.00000000
H       11.20701300       6.46547050      -0.58012950      -0.09781372       0.26522726       0.02861064       0.00000000       0.00000000       0.00000000
H       12.58794300       7.10944950      -0.83681950       0.32157386      -0.08644293      -0.01912151       0.00000000       0.00000000       0.00000000
O       14.14777200       1.80768850      12.55374950       1.57269682       0.49227313      -1.09026858       0.00000000       0.00000000       0.00000000
H       14.89404600       1.90200550      11.97677550      -0.08321526      -0.11579842       0.11339172       0.00000000       0.00000000       0.00000000
H       13.91288200       2.75064550      12.70363050       0.02398550       0.13134239      -0.17967309       0.00000000       0.00000000       0.00000000
O       -2.63243700       8.00789750       7.64930350       0.81995728      -0.31055922       0.11356477       0.00000000       0.00000000       0.00000000
H       -3.17764000       7.53028950       8.33717550      -0.02629096      -0.11857713      -0.12807635       0.00000000       0.00000000       0.00000000
H       -3.20887100       8.72590650       7.40600850       0.31125244      -0.03726532       0.25914872       0.00000000       0.00000000       0.00000000
O       -0.14206700      -2.14986850       2.63035750      -0.38840825       0.16830113       0.57202809       0.00000000       0.00000000       0.00000000
H       -0.80719000      -2.83856350       2.84835950       0.35410254       0.13172697      -0.28307822       0.00000000       0.00000000       0.00000000
H       -0.50874800      -1.31744550       2.96068050       0.10640449       0.09503672       0.01725124       0.00000000       0.00000000       0.00000000
O        1.67311300      -3.26819450      12.73073350       1.04763255      -0.06552283      -0.67900789       0.00000000       0.00000000       0.00000000
H        1.27913900      -2.35356750      12.62648050       0.12948079       0.09253672      -0.10394544       0.00000000       0.00000000       0.00000000
H        1.92982700      -3.39764850      13.67815550       0.23494124      -0.19401190      -0.06292858       0.00000000       0.00000000       0.00000000
O        8.06634900      -4.56607650      11.72372150       1.18347384      -0.36058234      -0.69651273       0.00000000       0.00000000       0.00000000
H        7.21126600      -4.67489250      12.27036150       0.08176153      -0.28829167      -0.24512211       0.00000000       0.00000000       0.00000000
H        8.11153000      -3.56303550      11.66037450       0.28584665       0.13572801       0.01803776       0.00000000       0.00000000       0.00000000
O        0.11638600       5.24067850       4.72047450       0.25617594       0.07627963       0.30408266       0.00000000       0.00000000       0.00000000
H       -0.26364100       4.85991050       3.87585050      -0.08981318       0.06210299       0.10405224       0.00000000       0.00000000       0.00000000
H       -0.45953700       5.99304850       4.94945850       0.10860134       0.07960613      -0.30606834       0.00000000       0.00000000       0.00000000
O        3.33018300      -0.82701150       1.77818650       1.01809774       0.65938705       0.36854021       0.00000000       0.00000000       0.00000000
H        2.55681000      -0.22653250       1.88965550      -0.00483292       0.33569898       0.01316187       0.00000000       0.00000000       0.00000000
H        2.97416300      -1.63057050       2.09487950       0.10449183       0.01981088      -0.13532791       0.00000000       0.00000000       0.00000000
O        7.07098200       1.13314350      -1.52516850      -0.20743923      -0.04108972       0.24654259       0.00000000       0.00000000       0.00000000
H        6.64330100       1.74450550      -0.91988150       0.14157394       0.18709734       0.01562336       0.00000000       0.00000000       0.00000000
H        6.43883700       0.36440250      -1.47316550       0.11988544       0.03256621      -0.05827208       0.00000000       0.00000000       0.00000000
O        5.15335300       4.07353950      11.86905950       0.17419410       0.06250732       0.64245566       0.00000000       0.00000000       0.00000000
H        5.08357800       4.83789550      12.51088050      -0.31034125       0.01393040      -0.10432323       0.00000000       0.00000000       0.00000000
H        5.31992200       4.34586050      11.00123650       0.27778158       0.05626717      -0.18858900       0.00000000       0.00000000       0.00000000
O        5.03594100      10.69333450       7.07639650       0.02943072      -0.22799794       0.03086014       0.00000000       0.00000000       0.00000000
H        4.17868300      10.78212050       6.63259050       0.13975656       0.10948573       0.02319147       0.00000000       0.00000000       0.00000000
H        5.53520600      11.49507750       6.98847250      -0.08023882       0.27514112       0.05378126       0.00000000       0.00000000       0.00000000
O        2.61230900       6.40259150       5.75326750      -1.46680419       1.21095127       0.91619028       0.00000000       0.00000000       0.00000000
H        2.31280600       6.81160050       6.59433350      -0.19808960       0.02831882      -0.31328033       0.00000000       0.00000000       0.00000000
H        1.80747000       6.01769950       5.36821050       0.26072942       0.24797594       0.14021193       0.00000000       0.00000000       0.00000000
O       -1.43866000      12.69851850       7.26567750       0.30710555       0.54910298      -0.28351204       0.00000000       0.00000000       0.00000000
H       -1.20246700      11.90557750       6.78399550       0.02726397      -0.01317481       0.08096519       0.00000000       0.00000000       0.00000000
H       -2.46008300      12.66893550       7.32862550      -0.07683030       0.16622966      -0.08279228       0.00000000       0.00000000       0.00000000
O        4.43556000       8.98899650       1.28551450       0.02351716       0.54173163      -0.56972398       0.00000000       0.00000000       0.00000000
H        3.63489300       9.17080550       0.81741050      -0.01110182       0.12612655       0.03047147       0.00000000       0.00000000       0.00000000
H        4.82332100       9.84010850       1.29578750      -0.21142624       0.07677134      -0.19440539       0.00000000       0.00000000       0.00000000
O       10.18762800      -2.65759450      -2.52530950      -0.08998028       0.25738395      -1.13938186       0.00000000       0.00000000       0.00000000
H       10.99081100      -3.22245650      -2.74786850       0.03176195      -0.08783327      -0.15365139       0.00000000       0.00000000       0.00000000
H        9.97878300      -2.75527850      -1.54859950       0.01535312       0.36035229      -0.08301708       0.00000000       0.00000000       0.00000000
O       -2.64045000      -2.62412750       7.63967250      -0.96450128      -0.03135616      -0.15907161       0.00000000       0.00000000       0.00000000
H       -2.14750400      -3.14252050       7.03125550      -0.00054925      -0.09139269      -0.05463774       0.00000000       0.00000000       0.00000000
H       -3.54015300      -2.46654350       7.27311050       0.02811054       0.39283550      -0.00645895       0.00000000       0.00000000       0.00000000
O        8.69557800       2.24336650       1.13425850      -0.10611284      -0.57349657      -0.65081976       0.00000000       0.00000000       0.00000000
H        8.61315000       2.68878650       1.99591550      -0.06248450      -0.07741208      -0.37174696       0.00000000       0.00000000       0.00000000
H        8.57833800       2.95524150       0.47739050      -0.12836252      -0.01388795       0.07868777       0.00000000       0.00000000       0.00000000
O        9.43909200      13.82695050       5.90326250       0.22485203      -0.13944653       0.00313723       0.00000000       0.00000000       0.00000000
H        9.79197500      14.67489250       6.20024650       0.14485536      -0.23492479       0.07127856       0.00000000       0.00000000       0.00000000
H       10.13545900      13.23143650       6.09452150      -0.00554291      -0.12211047       0.07777322       0.00000000       0.00000000       0.00000000
O        6.38579400      -1.49450050       6.71007450      -1.82162950      -0.07595144       0.54028244       0.00000000       0.00000000       0.00000000
H        6.87339100      -1.11776950       6.03421150      -0.06867005      -0.00180189      -0.20399993       0.00000000       0.00000000       0.00000000
H        6.97435200      -1.35791350       7.46499450      -0.29976542       0.03905036      -0.06992230       0.00000000       0.00000000       0.00000000
O        3.62666800      -1.28331250       9.78920050      -0.23539624      -0.76922405       0.13894153       0.00000000       0.00000000       0.00000000
H        3.87349500      -1.73636350      10.59654750       0.10010592      -0.05235425       0.21951271       0.00000000       0.00000000       0.00000000
H        3.70662300      -0.33143750       9.88921450       0.05532740      -0.05179045       0.15251871       0.00000000       0.00000000       0.00000000
O       -2.44734600       1.95758750      10.72133550      -0.27570873       0.35829971       0.00181309       0.00000000       0.00000000       0.00000000
H       -2.73612900       2.69584550      10.17964250      -0.00656496       0.12308426       0.02796882       0.00000000       0.00000000       0.00000000
H       -1.64994300       2.33185850      11.18576750       0.11271114      -0.07548494      -0.07868095       0.00000000       0.00000000       0.00000000
O        2.19185300       9.65054050      -0.35655950       0.13244366      -1.10812626      -0.69458623       0.00000000       0.00000000       0.00000000
H        1.23722000       9.57835250      -0.33472050       0.05855487       0.00262018      -0.07371400       0.00000000       0.00000000       0.00000000
H        2.53166600       9.19657550      -1.13132750       0.43824499       0.06169240      -0.04267108       0.00000000       0.00000000       0.00000000
O        4.04946900       9.28728550      -2.72172350      -0.85717427       0.11808038      -0.72511687       0.00000000       0.00000000       0.00000000
H        4.77271700       8.67011250      -2.78357450       0.11542031       0.02241869       0.34157903       0.00000000       0.00000000       0.00000000
H        3.83653200       9.61174850      -3.61419850      -0.20675436      -0.19922331       0.03516232       0.00000000       0.00000000       0.00000000
O        6.06660700      -1.67995150      13.10039450       0.39000839       0.15687122      -0.42398313       0.00000000       0.00000000       0.00000000
H        6.85699900      -2.10130450      13.51022950      -0.40815501      -0.27494474      -0.01673024       0.00000000       0.00000000       0.00000000
H        6.49467900      -0.85272750      12.76382050      -0.01466380       0.20676988      -0.05875685       0.00000000       0.00000000       0.00000000
O       12.30978000       7.36621350       4.86649550       0.40208642       0.68875086       0.80835631       0.00000000       0.00000000       0.00000000
H       11.53392500       8.01675950       4.85191050      -0.03884708      -0.08763656      -0.12403315       0.00000000       0.00000000       0.00000000
H       12.57596300       7.19780850       4.00491350      -0.10309542       0.14295890      -0.15442570       0.00000000       0.00000000       0.00000000
O        0.75863200       2.35480750      -2.73935350       0.65928319       0.51177914      -0.70851330       0.00000000       0.00000000       0.00000000
H       -0.03859000       1.83814650      -2.52300150       0.24244216       0.34318551       0.15354574       0.00000000       0.00000000       0.00000000
H        0.51167300       3.24470750      -3.10343750      -0.10737680       0.32972062       0.08236819       0.00000000       0.00000000       0.00000000
O        1.11248800      -2.06485250       8.82734250       0.39446678      -1.40290742      -0.83076878       0.00000000       0.00000000       0.00000000
H        1.09419800      -3.02094150       8.99738250       0.13350379       0.00106137       0.08815669       0.00000000       0.00000000       0.00000000
H        2.00623600      -1.80136450       9.13835150       0.08087277      -0.02768885       0.10416265       0.00000000       0.00000000       0.00000000
O        1.26341900      10.99630650      14.04344650       0.23130930       0.62935865       0.16292560       0.00000000       0.00000000       0.00000000
H        1.02991600      11.10330750      14.94917950      -0.04321549       0.03626373      -0.13644513       0.00000000       0.00000000       0.00000000
H        0.44314700      11.41331750      13.62368550       0.00027121      -0.05638141      -0.34423125       0.00000000       0.00000000       0.00000000
O       -4.06301700      -1.03899350       3.88292350       0.49451225       0.18191459       0.73935718       0.00000000       0.00000000       0.00000000
H       -3.23924900      -0.52293550       4.16201350      -0.04933155      -0.15775951      -0.22340406       0.00000000       0.00000000       0.00000000
H       -4.66878800      -0.32733450       3.57486250       0.17153036      -0.08277299      -0.15685947       0.00000000       0.00000000       0.00000000
O        2.01788900       3.70263850       1.84366250      -0.02025732      -1.07604688      -0.82871063       0.00000000       0.00000000       0.00000000
H        1.88741700       2.84137550       2.19886950       0.04811568      -0.05449059      -0.04004494       0.00000000       0.00000000       0.00000000
H        2.27061900       3.48282850       0.97372950      -0.22091562       0.34379989       0.03939909       0.00000000       0.00000000       0.00000000
