   648

  O      2.237450   -3.818147    7.927267
  H      3.072257   -4.219264    8.099970
  H      2.087389   -3.305416    8.676095
  O     -9.202305    1.935800    4.814840
  H    -10.104833    1.931342    5.230923
  H     -9.035035    0.956240    4.709288
  O     -6.657898   -1.153525    2.232196
  H     -6.169550   -0.537677    1.670794
  H     -6.006821   -1.337034    2.970483
  O      4.866923    4.779397    0.500835
  H      4.159013    5.025628   -0.140531
  H      4.440716    4.462816    1.325763
  O      4.842971    3.693491    6.022272
  H      4.400934    2.875337    6.469305
  H      4.977169    4.359710    6.712162
  O      0.373414    1.904976   -4.022010
  H      0.266706    1.380538   -3.191792
  H     -0.387429    2.569437   -3.881845
  O     -8.530165   -0.113733   -6.622786
  H     -7.751319    0.102094   -7.183357
  H     -8.357005   -0.906729   -6.119763
  O      3.875421   -6.653475    5.957141
  H      4.591418   -7.312055    5.806466
  H      4.185154   -6.091797    6.653238
  O      3.142734   -7.948800   -9.052323
  H      3.604759   -8.367118   -9.752038
  H      3.763021   -7.939413   -8.322916
  O      4.737458    4.524174   -7.417424
  H      4.000887    4.838778   -6.817978
  H      5.342754    4.100283   -6.783270
  O      6.923969    4.799835    3.998785
  H      6.539993    3.922915    3.763369
  H      7.383868    4.825512    4.916244
  O      2.409299    3.609430   -3.007396
  H      2.969119    2.879342   -2.601129
  H      1.790497    3.151411   -3.610476
  O      6.410448    2.701953   -5.661478
  H      5.996226    1.920115   -5.382988
  H      7.377156    2.564094   -5.639678
  O      8.936985   -2.737667    7.750891
  H      9.683259   -2.643350    7.173917
  H      8.702095   -1.794710    7.900772
  O     -7.843224    3.462542    2.846445
  H     -8.388427    2.984934    3.534317
  H     -8.419658    4.180551    2.603150
  O     -5.352854   -6.695224   -2.172501
  H     -6.017977   -7.383919   -1.954499
  H     -5.719535   -5.862801   -1.842178
  O     -3.537674   -7.813550    7.927875
  H     -3.931648   -6.898923    7.823622
  H     -3.280960   -7.943004    8.875297
  O      2.855562   -9.111432    6.920863
  H      2.000479   -9.220248    7.467503
  H      2.900743   -8.108391    6.857516
  O     -5.094401    0.695323   -0.082384
  H     -5.474428    0.314555   -0.927008
  H     -5.670324    1.447693    0.146600
  O     -1.880604   -5.372367   -3.024672
  H     -2.653977   -4.771888   -2.913203
  H     -2.236624   -6.175926   -2.707979
  O      1.860195   -3.412212   -6.328027
  H      1.432514   -2.800850   -5.722740
  H      1.228050   -4.180953   -6.276024
  O     -0.057434   -0.471816    7.066201
  H     -0.127209    0.292540    7.708022
  H      0.109135   -0.199495    6.198378
  O     -0.174846    6.147979    2.273538
  H     -1.032104    6.236765    1.829732
  H      0.324419    6.949722    2.185614
  O     -2.598478    1.857236    0.950409
  H     -2.897981    2.266245    1.791475
  H     -3.403317    1.472344    0.565352
  O     -6.649447    8.153163    2.462819
  H     -6.413254    7.360222    1.981137
  H     -7.670870    8.123580    2.525767
  O     -0.775227    4.443641   -3.517344
  H     -1.575894    4.625450   -3.985448
  H     -0.387466    5.294753   -3.507071
  O      4.976841   -7.202950   -7.328168
  H      5.780024   -7.767812   -7.550727
  H      4.767996   -7.300634   -6.351458
  O     -7.851237   -7.169483    2.836814
  H     -7.358291   -7.687876    2.228397
  H     -8.750940   -7.011899    2.470252
  O      3.484791   -2.301989   -3.668600
  H      3.402363   -1.856569   -2.806943
  H      3.367551   -1.590114   -4.325468
  O      4.228305    9.281595    1.100404
  H      4.581188   10.129537    1.397388
  H      4.924672    8.686081    1.291663
  O      1.175007   -6.039856    1.907216
  H      1.662604   -5.663125    1.231353
  H      1.763565   -5.903269    2.662136
  O     -1.584119   -5.828668    4.986342
  H     -1.337292   -6.281719    5.793689
  H     -1.504164   -4.876793    5.086356
  O     -7.658133   -2.587768    5.918477
  H     -7.946916   -1.849510    5.376784
  H     -6.860730   -2.213497    6.382909
  O     -3.018934    5.105185   -5.159418
  H     -3.973567    5.032997   -5.137579
  H     -2.679121    4.651220   -5.934186
  O     -1.161318    4.741930   -7.524582
  H     -0.438070    4.124757   -7.586433
  H     -1.374255    5.066393   -8.417057
  O      0.855820   -6.225307    8.297536
  H      1.646212   -6.646660    8.707371
  H      1.283892   -5.398083    7.960962
  O      7.098993    2.820858    0.063637
  H      6.323138    3.471404    0.049052
  H      7.365176    2.652453   -0.797945
  O     -4.452155   -2.190548   -7.542212
  H     -5.249377   -2.707209   -7.325860
  H     -4.699114   -1.300648   -7.906296
  O     -4.098299   -6.610208    4.024484
  H     -4.116589   -7.566297    4.194524
  H     -3.204551   -6.346720    4.335493
  O     -3.947368    6.450951    9.240588
  H     -4.180871    6.557952   10.146321
  H     -4.767640    6.867962    8.820827
  O     -9.273804   -5.584349   -0.919935
  H     -8.450036   -5.068291   -0.640845
  H     -9.879575   -4.872690   -1.227996
  O     -3.192898   -0.842717   -2.959196
  H     -3.323370   -1.703980   -2.603989
  H     -2.940168   -1.062527   -3.829129
  O     -0.968895   -7.910780    6.918286
  H     -1.856838   -7.804351    7.296730
  H     -0.338947   -7.381094    7.428080
  O     -4.232005    4.777182   -2.286122
  H     -3.823713    5.604228   -1.976127
  H     -4.703172    4.943454   -3.136098
  O      5.738596    5.610752    8.290329
  H      5.509525    6.525544    8.117130
  H      5.488569    5.418694    9.187627
  O     -7.240554    2.054289    0.673989
  H     -7.648203    2.518574    1.459825
  H     -7.912917    1.396375    0.509587
  O      9.081304   -2.963058   -5.822944
  H      8.149244   -3.095956   -5.639992
  H      9.241852   -3.213584   -6.792793
  O      7.246580    5.217174   -2.567354
  H      6.331166    5.116514   -2.538931
  H      7.597869    4.826650   -1.719589
  O      7.481366   -1.081228    2.892402
  H      6.843699   -1.663884    3.350248
  H      6.938705   -0.513369    2.381848
  O     -1.336702   -7.545689    0.635961
  H     -1.406170   -8.216970    1.329660
  H     -0.661871   -6.894411    0.955771
  O     -2.493919    0.557175    5.294440
  H     -2.997962   -0.197049    4.937836
  H     -2.805719    0.659429    6.222355
  O      6.992565   -4.970052    8.366468
  H      7.116312   -4.264968    7.717917
  H      7.306064   -4.577270    9.209256
  O     -3.677675    8.311900    6.224661
  H     -3.750214    9.026802    6.905305
  H     -2.750250    8.011662    6.213257
  O     -6.362613   -3.275375   -2.840296
  H     -6.779911   -2.321761   -2.773397
  H     -6.992146   -3.757881   -3.373532
  O      8.861312    8.639200    3.904082
  H      8.090881    8.153601    4.233048
  H      8.630066    9.553767    3.936150
  O      3.194684    2.516817   -8.726946
  H      3.471437    1.584205   -8.864924
  H      3.860464    3.074589   -8.305242
  O     -6.440708   -4.001458   -6.801090
  H     -5.870172   -4.758711   -7.032643
  H     -6.751811   -4.165894   -5.896489
  O      3.672195    2.195922   -1.098902
  H      3.899627    2.912782   -0.474059
  H      2.781702    1.902034   -0.772805
  O      0.965692    5.441611    5.799059
  H      1.711298    6.139240    5.549177
  H      1.370783    5.098434    6.664162
  O      9.245296   -2.489944    1.276177
  H      8.648097   -2.057487    1.916540
  H     10.025494   -2.902582    1.683615
  O      5.535832    0.447125   -4.777151
  H      5.678536    0.425359   -3.793367
  H      4.530817    0.560790   -5.015256
  O      2.465843    5.316883   -0.699191
  H      2.415983    4.789288   -1.477734
  H      1.842269    4.907061   -0.051506
  O     -5.145205   -4.668561    5.571350
  H     -6.092833   -4.425968    5.377619
  H     -4.982813   -5.515418    5.073149
  O     -1.834734    1.360363   -8.252547
  H     -2.300187    1.518266   -7.418395
  H     -1.645325    0.419006   -8.311646
  O     -2.034234    4.156240    6.492966
  H     -1.622769    4.968134    6.633535
  H     -1.686634    3.740802    5.695636
  O      1.963525   -2.025208   -8.680428
  H      1.856111   -2.498672   -7.876775
  H      1.184517   -1.494562   -8.752269
  O     -5.772558    1.238016    4.420184
  H     -6.363414    0.767218    3.820139
  H     -4.870820    0.939567    4.237917
  O     -2.828601    5.753973    1.138153
  H     -2.350650    5.248208    0.471334
  H     -3.212014    5.147547    1.763594
  O     -2.690489    2.747315    3.463175
  H     -3.545896    3.233301    3.580242
  H     -2.592577    1.976651    4.072680
  O     -5.864767    5.552726   -4.529722
  H     -5.539228    6.489735   -4.516873
  H     -6.263033    5.360694   -5.377357
  O      6.044883    0.534080    1.097737
  H      6.365548    1.379995    0.693568
  H      5.411534    0.137535    0.498496
  O      7.937246   -7.024272    5.794960
  H      8.738737   -7.055211    6.311407
  H      7.697835   -6.093122    5.751706
  O      3.795838    7.839390   -8.015134
  H      2.915690    8.216441   -7.995236
  H      4.268233    8.176549   -8.847438
  O      8.922081    0.185934    7.709382
  H      8.214339    0.687597    7.179943
  H      9.801031    0.144257    7.334308
  O     -8.284495    8.528507   -4.421905
  H     -8.606715    7.772966   -4.844057
  H     -8.919238    8.638211   -3.703494
  O      3.754176    3.764639    3.040589
  H      3.828808    4.128234    3.952821
  H      2.860303    3.516608    2.772563
  O     -6.783492    3.296156   -1.672144
  H     -5.947837    3.738757   -1.774140
  H     -6.807816    2.833104   -0.811306
  O     -4.206819   -6.733057    1.267194
  H     -4.210441   -6.547160    2.219914
  H     -3.421500   -7.261508    1.167117
  O     -4.997272    4.065991    8.397672
  H     -5.525698    4.484408    7.699627
  H     -4.349202    4.743027    8.621796
  O     -2.512844   -1.217287   -5.724099
  H     -2.569516   -0.251740   -5.765082
  H     -3.263558   -1.631838   -6.144516
  O      8.334466    5.388076    6.419944
  H      7.792797    4.925418    7.116725
  H      9.202042    5.011078    6.429176
  O      7.176365   -4.394630   -2.401551
  H      6.552795   -4.982650   -1.906297
  H      7.168228   -4.724382   -3.332866
  O      7.422190   -9.018456   -7.551653
  H      7.325495   -9.978920   -7.511832
  H      8.204748   -8.755137   -6.966970
  O     -6.448356    4.740166   -7.500041
  H     -7.209952    4.195426   -7.679563
  H     -5.886376    4.684898   -8.287913
  O      2.352647    5.170095   -5.843457
  H      1.739167    4.509639   -6.248055
  H      2.335608    5.903718   -6.487563
  O      0.403589    0.532596    4.532509
  H     -0.174109    0.165087    3.856331
  H      0.166688    1.493584    4.535754
  O      5.184375    8.433751    7.972269
  H      4.380177    8.797000    7.582835
  H      5.794620    9.236634    7.986175
  O      5.024562    1.168402    3.596912
  H      4.502625    1.979172    3.416767
  H      5.432347    0.913712    2.747639
  O     -7.286826   -0.652120   -2.359007
  H     -7.453093    0.024419   -3.023449
  H     -7.822799   -0.483236   -1.586196
  O     -3.084077    8.064528   -2.172054
  H     -2.191229    7.712393   -1.968460
  H     -3.052521    8.966341   -1.785382
  O      2.148913    4.967560    8.479640
  H      3.021976    5.267609    8.171776
  H      2.238376    4.063298    8.822347
  O      6.928174   -1.957705   -1.019954
  H      7.772433   -1.833262   -0.526754
  H      6.963368   -2.820329   -1.483019
  O     -1.203852   -0.647938    2.417619
  H     -1.727212   -0.090086    1.858782
  H     -1.660067   -1.350745    2.852097
  O     -7.185388    7.048923   -1.617577
  H     -7.022334    6.509450   -2.412237
  H     -7.094956    7.991514   -1.908087
  O      1.028020    2.915465   -7.089199
  H      1.012170    2.355792   -6.262318
  H      1.725995    2.609036   -7.687790
  O      7.318548   -5.573269   -5.248728
  H      6.869146   -5.096157   -5.974185
  H      8.088331   -6.067607   -5.564414
  O      1.102433   -1.400581    1.190937
  H      1.838477   -1.347709    1.840456
  H      0.210477   -1.217392    1.620521
  O      6.904272   -7.949407   -3.374448
  H      6.823810   -7.502713   -4.259767
  H      6.733239   -8.868699   -3.545570
  O      2.788250    7.430589    5.170201
  H      2.504900    7.691330    4.275943
  H      2.700903    8.275729    5.722201
  O      5.356620    6.995239    4.172283
  H      4.449214    7.106053    4.484939
  H      5.698669    6.163110    4.487246
  O     -4.569190   -4.896765    8.140375
  H     -3.916274   -4.380040    8.668678
  H     -4.488657   -4.545813    7.233461
  O     -7.053255   -5.796486    9.337970
  H     -6.345797   -5.438633    8.786997
  H     -7.645322   -6.294408    8.684652
  O     -9.172470    4.873536   -0.753098
  H     -8.769512    5.711631   -1.073281
  H     -8.491632    4.243056   -0.912974
  O     -4.295239    8.090045   -6.894351
  H     -5.272636    8.263783   -6.872271
  H     -3.968956    8.423775   -6.071598
  O     -8.794861   -0.263417    0.190811
  H     -9.639614    0.087261   -0.010751
  H     -8.980051   -1.084411    0.680781
  O     -1.954725    9.006832    2.390374
  H     -1.326173    9.311471    3.040703
  H     -2.862969    9.147149    2.762922
  O      5.742419   -4.282624   -7.095930
  H      4.965748   -4.880589   -7.111206
  H      5.541893   -3.594462   -6.402837
  O     -9.197938   -7.995764   -6.197169
  H     -8.441064   -7.855782   -6.792972
  H     -8.918509   -8.710718   -5.555249
  O      5.647146   -8.490961    5.133866
  H      5.437021   -9.284048    5.578812
  H      6.476115   -8.213416    5.494819
  O      3.779518   -7.336065   -4.699880
  H      4.127975   -7.951379   -4.034752
  H      3.771686   -6.469008   -4.293821
  O     -2.935963    1.683984   -5.616107
  H     -2.591424    2.009754   -4.754369
  H     -3.899579    1.760837   -5.485599
  O     -0.823254   -1.051196   -8.449701
  H     -0.749481   -1.292710   -7.510984
  H     -1.459489   -1.712320   -8.752575
  O      1.595704   -2.958739    5.121339
  H      2.010028   -2.143473    4.703021
  H      1.779999   -2.836720    6.097201
  O     -5.082664   -7.729391   -5.078183
  H     -5.186066   -7.459145   -4.146784
  H     -5.075967   -8.711255   -5.084151
  O      9.363482    8.957792    8.840716
  H      9.102400    8.269529    8.217014
  H      8.583151    8.963079    9.410227
  O     -0.905422    6.172093    8.607049
  H     -1.210622    7.056458    8.795908
  H      0.035704    6.100062    8.594826
  O     -0.639414   -4.025703    2.126222
  H     -0.824117   -3.932342    3.080640
  H      0.101142   -4.666416    2.014970
  O      5.865103    0.602366   -2.089600
  H      4.927891    0.754656   -1.750106
  H      6.185244   -0.323214   -1.876807
  O      3.376652    1.304936    6.689152
  H      2.627004    1.119239    7.310520
  H      3.610942    0.397379    6.521295
  O     -7.766410   -4.175187    3.139783
  H     -8.607145   -4.225773    3.607949
  H     -7.611308   -5.088907    2.933406
  O     -2.603792   -3.723626   -9.087168
  H     -2.955881   -3.205673   -8.326568
  H     -2.116656   -4.496784   -8.802669
  O     -5.526487    2.099376   -6.092959
  H     -6.126960    1.665818   -5.440997
  H     -5.918235    3.008264   -6.224059
  O     -1.171533    3.995170   -0.558847
  H     -0.903368    4.031277   -1.496551
  H     -1.573289    3.130702   -0.412660
  O     -6.506035   -8.401319    1.008305
  H     -6.254418   -9.206024    1.433227
  H     -5.710768   -7.903627    0.993646
  O     -4.617099   -1.530581    4.823498
  H     -4.972774   -1.770771    5.685612
  H     -4.575586   -2.378513    4.409253
  O     -0.195768    2.581131    8.319348
  H     -0.420560    2.317518    9.246046
  H     -0.996586    2.925198    7.924046
  O      5.344596   -6.190149   -1.492409
  H      4.521128   -5.741022   -1.773234
  H      5.566219   -6.911233   -2.126602
  O     -8.394100   -7.240409    7.630404
  H     -8.726370   -8.059104    8.056576
  H     -7.733694   -7.606306    7.014960
  O     -7.974462   -4.655653   -4.382964
  H     -8.672255   -4.150911   -4.804342
  H     -8.329541   -5.521811   -4.473099
  O      8.508553   -4.371215    5.124456
  H      8.869209   -3.890594    5.823742
  H      7.668272   -3.937758    5.055218
  O      0.599269    8.579055    8.547173
  H     -0.021057    9.255200    8.522056
  H      0.870285    8.451447    9.502682
  O     -5.873020    6.178312    0.769654
  H     -6.373053    6.483046    0.011832
  H     -4.944003    6.105311    0.570150
  O     -2.555867    2.271644   -2.878163
  H     -3.221216    3.006972   -2.722142
  H     -3.055457    1.499296   -2.567259
  O      2.657470   -4.094659   -0.146746
  H      2.955109   -4.708416   -0.809161
  H      3.459709   -3.824690    0.317168
  O     -4.802491    4.335202    3.132756
  H     -5.618698    3.915248    2.871549
  H     -4.990127    4.680241    4.044557
  O     -0.175266   -9.226258    4.459252
  H     -0.423366   -8.602340    5.130058
  H     -0.390158  -10.072732    4.888579
  O     -2.682361   -7.718972   -1.681229
  H     -3.551643   -7.306802   -1.685163
  H     -2.240188   -7.526488   -0.828523
  O      8.577657    8.005922    0.627739
  H      7.659715    7.745559    0.770386
  H      9.106386    7.352908    1.009027
  O      6.239285   -2.852018    4.583059
  H      5.720292   -2.483837    5.305228
  H      5.584038   -3.430086    4.117306
  O      5.283127   -1.131364    6.761976
  H      5.509001   -0.237762    6.447938
  H      5.658867   -1.350643    7.678091
  O      4.957686    4.619761   -4.138461
  H      4.083463    4.341416   -4.072110
  H      5.420630    3.842041   -4.404212
  O      2.502190   -5.366429    4.091922
  H      2.828529   -6.034384    4.752929
  H      2.065361   -4.625771    4.600905
  O      9.003821    3.077971   -6.010291
  H      9.273100    2.949944   -6.918713
  H      9.078597    4.036230   -5.877738
  O     -2.675447   -7.310340   -5.982345
  H     -3.541880   -7.159797   -5.591248
  H     -2.075342   -6.599027   -5.635787
  O      1.016195   -5.958663   -1.655044
  H      0.867179   -6.881875   -1.706334
  H      0.167768   -5.563702   -1.843446
  O      8.108038   -0.499713   -8.535110
  H      8.763582   -0.437734   -7.865089
  H      8.499933   -0.122976   -9.322429
  O     -2.848710   -4.486786    0.283360
  H     -2.146096   -4.345207    1.009466
  H     -3.347502   -5.250045    0.514480
  O      7.164064    6.917635   -7.497722
  H      6.315909    6.526322   -7.544078
  H      7.667827    6.477280   -8.240648
  O     -1.154343   -2.820843    4.780344
  H     -0.202094   -2.701791    4.865745
  H     -1.501930   -2.423589    5.605933
  O      6.089479    7.318945    1.270341
  H      5.765021    6.493743    0.908272
  H      5.997586    7.149299    2.187907
  O      0.423600   -0.195415   -5.641886
  H      0.256202   -1.016111   -5.184348
  H      0.036735    0.474085   -5.143222
  O     -2.216028   -1.995511    7.368121
  H     -1.967011   -2.649765    8.052576
  H     -1.540750   -1.285395    7.439770
  O      6.319983   -2.128053   -5.437509
  H      6.343546   -1.217186   -5.824361
  H      6.084382   -2.069882   -4.507640
  O     -2.508709   -8.757344   -8.436571
  H     -3.091054   -9.322939   -7.904447
  H     -2.300779   -8.012168   -7.855279
  O     -7.711698    7.662855    5.571621
  H     -8.465081    8.017292    5.036148
  H     -7.087653    7.179299    5.025683
  O     -1.211940    7.056678    5.160682
  H     -1.368525    6.782316    4.208805
  H     -0.493368    6.543977    5.569947
  O      6.313198   -2.365121    9.145831
  H      7.043948   -1.985143    9.601951
  H      5.887981   -2.908474    9.808533
  O     -5.715016    9.001821    8.758344
  H     -5.459085    9.753038    8.219603
  H     -6.243242    9.345699    9.509134
  O      1.252960   -8.056305   -4.858274
  H      1.016121   -8.508972   -4.013777
  H      2.137984   -7.781501   -4.724310
  O      0.926741    6.560951   -3.475611
  H      0.751358    6.889210   -4.348587
  H      1.669868    6.070881   -3.673767
  O      6.296472    1.566704   -8.388104
  H      6.872792    0.841227   -8.247129
  H      6.263329    1.954747   -7.568974
  O      1.953183    8.585383    2.713224
  H      1.443778    9.320328    3.090184
  H      2.772178    8.951946    2.305435
  O     -5.353991    0.471407   -8.488740
  H     -5.378287    1.052547   -7.731580
  H     -4.660717    0.858946   -9.060514
  O     -7.272601    5.996869    8.225462
  H     -7.645412    5.784288    7.362188
  H     -7.018204    6.931075    8.231804
  O      6.654974   -8.113908    8.641133
  H      7.142686   -8.267044    9.451846
  H      7.081716   -7.349513    8.333740
  O     -9.065134   -3.945326   -8.422639
  H     -8.299217   -4.427842   -8.656649
  H     -9.222236   -3.455182   -9.237579
  O     -6.382936   -8.339608    6.023312
  H     -6.568703   -9.292356    5.831467
  H     -6.396951   -7.937707    5.197563
  O      9.067963    5.429534   -8.901855
  H      8.614245    4.757663   -9.434760
  H      9.871908    5.737429   -9.401750
  O     -6.690689   -4.716914   -0.623420
  H     -6.472589   -3.931324   -1.239885
  H     -6.167727   -4.663432    0.212220
  O      1.172332    8.518125   -7.494395
  H      1.276143    9.414555   -7.230215
  H      0.423304    8.105854   -7.045663
  O      2.584383   -0.653765    3.751495
  H      3.475583   -0.189015    3.855588
  H      1.959890   -0.018326    4.075247
  O      6.805650    1.662271    5.858575
  H      6.353278    2.391179    6.232476
  H      6.367668    1.551693    4.952068
  O     -5.366503    8.121046   -4.047066
  H     -4.885849    8.173154   -3.237276
  H     -6.267775    8.433831   -3.825224
  O     -4.310469    9.195524    3.859341
  H     -4.212521    8.940986    4.739631
  H     -5.114002    8.678120    3.631514
  O     -7.011224    7.483150   -7.186881
  H     -6.957788    6.517173   -7.324743
  H     -7.476634    7.984677   -7.879325
  O      9.064208    5.381506    1.929693
  H      9.098079    5.042110    1.007651
  H      8.190616    5.090646    2.264055
  O      4.851991   -4.717953    3.039284
  H      3.970438   -4.989105    3.296841
  H      5.134792   -5.371787    2.405269
  O     -8.992493   -7.265083   -3.101394
  H     -9.925964   -7.622197   -3.134438
  H     -8.992031   -6.619396   -2.352700
  O     -4.701769    5.382283    5.869127
  H     -4.266865    6.310457    5.843124
  H     -3.900615    4.878805    6.080373
  O     -4.916127   -1.876319    7.644963
  H     -5.274047   -2.423612    8.358769
  H     -3.956836   -1.975304    7.718344
  O     -8.712732   -0.751913    4.159432
  H     -9.603668   -0.977109    3.738254
  H     -8.053341   -0.800231    3.377720
  O      4.599741    9.074814   -3.161267
  H      3.979068    8.876293   -2.430897
  H      4.382269    8.420355   -3.791564
  O      1.090799    1.043942   -0.025335
  H      0.554702    0.612192   -0.674120
  H      1.416590    0.223525    0.513510
  O     -1.097359   -5.860578   -8.240015
  H     -0.361161   -5.959702   -8.897194
  H     -0.763268   -5.627772   -7.313179
  O      8.722088   -7.439827    0.947562
  H      8.946703   -8.355435    0.745248
  H      8.878617   -6.833695    0.217599
  O      2.600213    8.274867   -1.174099
  H      3.034593    8.634375   -0.335129
  H      2.305811    7.409344   -0.917095
  O     -7.057279    0.506709    6.920383
  H     -6.281737    0.120068    7.380379
  H     -6.745492    0.575403    6.033465
  O     -0.094010   -5.946518   -5.379080
  H     -0.422750   -5.654467   -4.535687
  H      0.326053   -6.752491   -5.121104
  O     -0.665709    7.004748   -1.232298
  H     -0.083505    7.011529   -2.057849
  H     -0.860900    6.092163   -1.049934
  O      4.285973   -5.509196    8.440810
  H      4.104992   -6.328423    8.967057
  H      5.231381   -5.271327    8.370853
  O      3.234459   -4.990050   -3.077606
  H      2.322795   -5.163288   -2.789687
  H      3.322891   -4.143176   -3.444120
  O      7.754436    3.372790    8.410104
  H      8.485909    2.790699    8.547332
  H      7.112025    3.167820    9.105309
  O     -7.893812    3.680863    6.478772
  H     -8.337515    3.023479    5.874326
  H     -7.294295    4.010930    5.835669
  O     -7.195628   -8.775736   -1.793546
  H     -8.028642   -8.364048   -2.080380
  H     -7.154249   -8.633179   -0.835660
  O     -7.323248    1.452529   -3.965115
  H     -8.161139    1.530899   -4.389999
  H     -7.185577    2.216187   -3.424277
  O      8.581048    5.771443   -5.153204
  H      8.041905    6.195376   -5.873839
  H      8.089988    5.750654   -4.318255
  O     -0.390083    7.063346   -5.957898
  H     -0.757617    6.225878   -6.363698
  H     -1.116685    7.533256   -5.531979
  O      3.018493   -0.102848   -5.860751
  H      2.069144   -0.034065   -5.831889
  H      3.294478    0.024898   -6.819355
  O      8.453916    2.383069   -2.436365
  H      8.091686    2.876043   -3.165693
  H      8.238771    1.442701   -2.633024
  O      3.604131   -1.145557   -0.946758
  H      4.032251   -1.747595   -0.345282
  H      2.724417   -0.969664   -0.560802
  O     -7.539621    2.426109   -9.103843
  H     -7.428327    2.980723   -9.901689
  H     -6.871663    1.781348   -9.191965
  O     -0.167149    3.213369    4.530561
  H      0.445276    3.740887    4.967181
  H     -0.250140    3.629437    3.622467
  O     -0.003061   -2.759899   -4.239520
  H     -0.890694   -3.117468   -4.334358
  H      0.093378   -2.822118   -3.261285
  O     -6.810869   -7.841694   -7.631724
  H     -6.166232   -7.707994   -6.930112
  H     -6.944246   -7.165781   -8.294695
  O      0.223324   -2.922532   -1.151895
  H     -0.609286   -3.221666   -0.771433
  H      0.934406   -3.088107   -0.512819
  O      0.552942   -8.750097   -2.086263
  H      1.208602   -9.226151   -1.538367
  H     -0.379923   -8.906029   -1.763773
  O     -3.722149   -3.451880   -2.239380
  H     -4.670785   -3.538988   -2.461308
  H     -3.613968   -3.586714   -1.256054
  O      4.660467   -2.850180    1.224051
  H      5.499445   -2.858095    0.851817
  H      4.743634   -3.369334    2.058279
  O     -2.532481    8.641490   -4.836874
  H     -2.738565    8.283142   -3.948270
  H     -2.359443    9.609213   -4.789592
  O     -0.633508   -0.213229   -1.752539
  H     -1.597418   -0.225689   -1.737886
  H     -0.437916   -1.082026   -1.428633
  O      5.685864   -6.740918    1.364823
  H      6.672883   -6.786288    1.417363
  H      5.575818   -6.568884    0.410781
  O      1.149228    3.666922    1.363997
  H      0.592964    3.149276    0.799506
  H      0.619994    4.413371    1.705857
  O      8.266412    7.804876   -2.448427
  H      7.744616    7.093257   -2.664510
  H      8.396330    7.871952   -1.499261
  O      4.692081    7.066234   -5.155763
  H      4.624628    7.206704   -6.106687
  H      4.750872    6.032900   -4.993180
  O     -3.595584    1.472365    8.392751
  H     -3.905994    2.391888    8.188599
  H     -2.881421    1.525708    9.045921
  O      3.918151   -0.170709   -8.680306
  H      3.302729   -0.896362   -8.714428
  H      4.715342   -0.534133   -9.001921