126

  O      2.237450   -3.818147    7.927267
  H      3.072257   -4.219264    8.099970
  H      2.087389   -3.305416    8.676095
  O     -9.202305    1.935800    4.814840
  H    -10.104833    1.931342    5.230923
  H     -9.035035    0.956240    4.709288
  O     -6.657898   -1.153525    2.232196
  H     -6.169550   -0.537677    1.670794
  H     -6.006821   -1.337034    2.970483
  O      4.866923    4.779397    0.500835
  H      4.159013    5.025628   -0.140531
  H      4.440716    4.462816    1.325763
  O      4.842971    3.693491    6.022272
  H      4.400934    2.875337    6.469305
  H      4.977169    4.359710    6.712162
  O      0.373414    1.904976   -4.022010
  H      0.266706    1.380538   -3.191792
  H     -0.387429    2.569437   -3.881845
  O     -8.530165   -0.113733   -6.622786
  H     -7.751319    0.102094   -7.183357
  H     -8.357005   -0.906729   -6.119763
  O      3.875421   -6.653475    5.957141
  H      4.591418   -7.312055    5.806466
  H      4.185154   -6.091797    6.653238
  O      3.142734   -7.948800   -9.052323
  H      3.604759   -8.367118   -9.752038
  H      3.763021   -7.939413   -8.322916
  O      4.737458    4.524174   -7.417424
  H      4.000887    4.838778   -6.817978
  H      5.342754    4.100283   -6.783270
  O      6.923969    4.799835    3.998785
  H      6.539993    3.922915    3.763369
  H      7.383868    4.825512    4.916244
  O      2.409299    3.609430   -3.007396
  H      2.969119    2.879342   -2.601129
  H      1.790497    3.151411   -3.610476
  O      6.410448    2.701953   -5.661478
  H      5.996226    1.920115   -5.382988
  H      7.377156    2.564094   -5.639678
  O      8.936985   -2.737667    7.750891
  H      9.683259   -2.643350    7.173917
  H      8.702095   -1.794710    7.900772
  O     -7.843224    3.462542    2.846445
  H     -8.388427    2.984934    3.534317
  H     -8.419658    4.180551    2.603150
  O     -5.352854   -6.695224   -2.172501
  H     -6.017977   -7.383919   -1.954499
  H     -5.719535   -5.862801   -1.842178
  O     -3.537674   -7.813550    7.927875
  H     -3.931648   -6.898923    7.823622
  H     -3.280960   -7.943004    8.875297
  O      2.855562   -9.111432    6.920863
  H      2.000479   -9.220248    7.467503
  H      2.900743   -8.108391    6.857516
  O     -5.094401    0.695323   -0.082384
  H     -5.474428    0.314555   -0.927008
  H     -5.670324    1.447693    0.146600
  O     -1.880604   -5.372367   -3.024672
  H     -2.653977   -4.771888   -2.913203
  H     -2.236624   -6.175926   -2.707979
  O      1.860195   -3.412212   -6.328027
  H      1.432514   -2.800850   -5.722740
  H      1.228050   -4.180953   -6.276024
  O     -0.057434   -0.471816    7.066201
  H     -0.127209    0.292540    7.708022
  H      0.109135   -0.199495    6.198378
  O     -0.174846    6.147979    2.273538
  H     -1.032104    6.236765    1.829732
  H      0.324419    6.949722    2.185614
  O     -2.598478    1.857236    0.950409
  H     -2.897981    2.266245    1.791475
  H     -3.403317    1.472344    0.565352
  O     -6.649447    8.153163    2.462819
  H     -6.413254    7.360222    1.981137
  H     -7.670870    8.123580    2.525767
  O     -0.775227    4.443641   -3.517344
  H     -1.575894    4.625450   -3.985448
  H     -0.387466    5.294753   -3.507071
  O      4.976841   -7.202950   -7.328168
  H      5.780024   -7.767812   -7.550727
  H      4.767996   -7.300634   -6.351458
  O     -7.851237   -7.169483    2.836814
  H     -7.358291   -7.687876    2.228397
  H     -8.750940   -7.011899    2.470252
  O      3.484791   -2.301989   -3.668600
  H      3.402363   -1.856569   -2.806943
  H      3.367551   -1.590114   -4.325468
  O      4.228305    9.281595    1.100404
  H      4.581188   10.129537    1.397388
  H      4.924672    8.686081    1.291663
  O      1.175007   -6.039856    1.907216
  H      1.662604   -5.663125    1.231353
  H      1.763565   -5.903269    2.662136
  O     -1.584119   -5.828668    4.986342
  H     -1.337292   -6.281719    5.793689
  H     -1.504164   -4.876793    5.086356
  O     -7.658133   -2.587768    5.918477
  H     -7.946916   -1.849510    5.376784
  H     -6.860730   -2.213497    6.382909
  O     -3.018934    5.105185   -5.159418
  H     -3.973567    5.032997   -5.137579
  H     -2.679121    4.651220   -5.934186
  O     -1.161318    4.741930   -7.524582
  H     -0.438070    4.124757   -7.586433
  H     -1.374255    5.066393   -8.417057
  O      0.855820   -6.225307    8.297536
  H      1.646212   -6.646660    8.707371
  H      1.283892   -5.398083    7.960962
  O      7.098993    2.820858    0.063637
  H      6.323138    3.471404    0.049052
  H      7.365176    2.652453   -0.797945
  O     -4.452155   -2.190548   -7.542212
  H     -5.249377   -2.707209   -7.325860
  H     -4.699114   -1.300648   -7.906296
  O     -4.098299   -6.610208    4.024484
  H     -4.116589   -7.566297    4.194524
  H     -3.204551   -6.346720    4.335493
  O     -3.947368    6.450951    9.240588
  H     -4.180871    6.557952   10.146321
  H     -4.767640    6.867962    8.820827
  O     -9.273804   -5.584349   -0.919935
  H     -8.450036   -5.068291   -0.640845
  H     -9.879575   -4.872690   -1.227996
  O     -3.192898   -0.842717   -2.959196
  H     -3.323370   -1.703980   -2.603989
  H     -2.940168   -1.062527   -3.829129